# Node Net
 43   1
 33   1
1051   1
2467   2
1250   2
 23   2
 46   3
2493   3
2497   3
1650   4
  7   4
 26   4
501   5
2458   5
 51   5
2463   6
2476   6
1951   6
1600   7
450   7
1901   7
2251   8
1200   8
350   9
 45   9
1801  10
2469  10
 19  11
 14  11
 25  12
1551  12
  2  13
 21  13
700  14
1301  14
2101  15
951  15
